100	5
25	200
10
7
13
19
26
3
5
9
16
16
12
19
23
20
8
19
2
12
17
9
11
18
29
3
6
17
16
16
9
21
27
23
11
14
8
5
8
16
31
9
5
5
7
18
16
1
27
36
30
13
10
9
14
18
2
6
7
18
28
3
13
19
10
9
20
25
25
36
6
5
15
25
9
8
18
13
14
3
23
6
26
16
11
7
41
35
26
9
15
3
1
2
22
27
20
11
12
10
9
17
35	35	0	230	0	0
41	49	133	198	10	2
35	17	22	87	10	1
55	45	98	143	10	3
55	20	123	184	10	1
15	30	20	93	10	1
25	30	76	131	10	2
20	50	61	110	10	3
10	43	75	124	10	3
55	60	74	129	10	2
30	60	107	150	10	1
20	65	42	101	10	3
50	35	38	97	10	2
30	25	131	196	10	2
15	10	32	114	10	2
30	5	35	96	10	1
10	20	52	107	10	1
5	30	124	189	10	1
20	40	69	114	10	3
15	60	52	109	10	1
45	65	105	156	10	2
45	20	37	96	10	3
45	10	76	127	10	1
55	5	43	102	10	1
65	35	124	190	10	1
65	20	121	186	10	2
45	30	112	161	10	1
35	40	8	75	10	1
41	37	11	76	10	3
64	42	37	98	10	2
40	60	49	102	10	2
31	52	24	85	10	2
35	69	116	175	10	1
53	52	24	92	10	1
65	55	96	147	10	1
63	65	116	178	10	2
2	60	41	112	10	3
20	20	113	164	10	2
5	5	60	115	10	3
60	12	33	110	10	2
40	25	65	114	10	1
42	7	72	131	10	3
24	12	25	91	10	3
23	3	111	162	10	1
11	14	45	102	10	3
6	38	29	99	10	2
2	48	92	151	10	2
8	56	34	105	10	3
13	52	128	192	10	1
6	68	93	132	10	3
47	47	102	155	10	2
49	58	64	121	10	1
27	43	26	87	10	3
37	31	75	124	10	3
57	29	118	171	10	1
63	23	111	170	10	1
53	12	106	163	10	3
32	12	77	134	10	3
36	26	147	210	10	2
21	24	17	100	10	1
17	34	134	199	10	2
12	24	55	106	10	2
24	58	30	95	10	2
27	69	34	103	10	3
15	77	48	107	10	2
62	77	49	113	10	3
49	73	104	159	10	3
67	5	59	116	10	2
56	39	117	176	10	3
37	47	23	86	10	3
37	56	123	198	10	3
57	68	54	109	10	1
47	16	22	96	10	3
44	17	56	109	10	2
46	13	123	184	10	3
49	11	45	102	10	2
49	42	52	103	10	1
53	43	136	200	10	2
61	52	71	130	10	1
57	48	72	121	10	3
56	37	135	198	10	2
55	54	78	119	10	3
15	47	29	90	10	3
14	37	21	89	10	1
11	31	81	130	10	2
16	22	70	121	10	3
4	18	74	123	10	3
28	18	79	116	10	3
26	52	50	107	10	2
26	35	139	211	10	1
31	67	73	126	10	1
15	19	132	194	10	1
22	22	18	88	10	1
18	24	129	199	10	2
26	27	81	128	10	1
25	24	14	78	10	1
22	27	114	165	10	2
25	21	115	160	10	1
19	21	32	93	10	1
20	26	60	115	10	1
18	18	123	195	10	2
55	43	0	230	5	4
28	66	0	230	5	4
54	29	0	230	5	4
19	18	0	230	5	4
4	62	0	230	5	4
1	0	0	0	0	
0	0	0	0	0	
1	0	0	0	0	
0	0	0	0	0	
0	0	0	0	0	
0	0	0	1	0	
0	1	0	0	0	
0	0	0	0	1	
1	0	0	0	0	
0	0	0	0	0	
0	1	0	0	0	
0	0	1	0	0	
0	0	0	1	0	
0	0	0	1	0	
0	0	0	0	0	
0	0	0	0	0	
0	0	0	0	0	
0	0	0	1	0	
0	0	0	0	0	
0	1	0	0	0	
0	0	1	0	0	
0	0	0	0	0	
0	0	0	0	0	
0	0	0	0	0	
0	0	1	0	0	
0	0	0	0	0	
0	0	0	0	0	
1	0	0	0	0	
1	0	0	0	0	
0	1	0	0	0	
0	1	0	0	0	
0	0	0	0	0	
0	0	0	0	0	
0	0	0	0	0	
1	0	0	0	0	
0	0	0	0	1	
0	0	0	1	0	
0	0	0	1	0	
0	0	1	0	0	
0	0	0	0	0	
0	0	1	0	0	
0	0	0	1	0	
0	0	0	0	0	
0	0	0	1	0	
0	0	0	1	0	
0	0	0	0	1	
0	0	0	0	1	
0	0	0	0	0	
0	0	0	0	1	
1	0	0	0	0	
0	0	0	0	0	
0	1	0	0	0	
0	0	1	0	0	
0	0	0	0	0	
0	0	0	0	0	
0	0	1	0	0	
0	0	0	1	0	
0	0	1	0	0	
0	0	0	0	0	
0	0	0	1	0	
0	0	0	1	0	
0	1	0	0	0	
0	1	0	0	0	
0	1	0	0	0	
1	0	0	0	0	
0	1	0	0	0	
0	0	1	0	0	
1	0	0	0	0	
1	0	0	0	0	
0	1	0	0	0	
0	0	0	0	0	
0	0	1	0	0	
0	0	1	0	0	
0	0	1	0	0	
0	0	1	0	0	
0	0	0	0	0	
1	0	0	0	0	
0	0	0	0	0	
1	0	0	0	0	
1	0	0	0	0	
1	0	0	0	0	
0	0	0	0	1	
0	0	0	0	0	
0	0	0	1	0	
0	0	0	1	0	
0	0	0	1	0	
0	0	0	1	0	
0	1	0	0	0	
0	0	0	0	0	
0	0	0	0	0	
0	0	0	0	0	
0	0	0	0	0	
0	0	0	1	0	
0	0	0	0	0	
0	0	0	0	0	
0	0	0	1	0	
0	0	0	0	0	
0	0	0	0	0	
0	0	0	0	0	
0	0	0	1	0	
